(set-option :auto-config false)
(set-option :produce-unsat-cores false)
(set-option :smt.mbqi.max_iterations 10000000)
(set-option :smt.relevancy 0)
(declare-fun c0 () Bool)
(declare-fun c1 () Bool)
(define-fun e2 () Bool (not c1))
(declare-fun c3 () Bool)
(define-fun e4 () Bool (not c3))
(define-fun e5 () Bool (and c0 e2 e4))
(declare-fun c6 () Bool)
(define-fun e7 () Bool (not c6))
(define-fun e8 () Bool (and e5 e7))
(define-fun e9 () Bool (not e8))
(declare-fun c10 () (_ BitVec 64))
(declare-fun c11 () (_ BitVec 64))
(define-fun e12 () Bool (= c10 c11))
(define-fun e13 () Bool (not e12))
(define-fun e14 () (_ BitVec 64) (_ bv1024 64))
(define-fun e15 () Bool (bvult c10 e14))
(define-fun e16 () Bool (bvult c11 e14))
(define-fun e17 () Bool (and e15 e16))
(define-fun e18 () (_ BitVec 64) (_ bv0 64))
(declare-fun c19 ((_ BitVec 64)) (_ BitVec 64))
(define-fun e20 () (_ BitVec 64) (c19 c10))
(define-fun e21 () Bool (= e18 e20))
(define-fun e22 () Bool (and e15 e21))
(define-fun e23 () (_ BitVec 64) (c19 c11))
(define-fun e24 () Bool (= e18 e23))
(define-fun e25 () Bool (and e16 e24))
(define-fun e26 () Bool (and e7 e13 e17 e22 e25))
(define-fun e27 () Bool (not e17))
(define-fun e28 () Bool (and e22 e25))
(define-fun e29 () Bool (not e28))
(define-fun e30 () Bool (and e17 e29))
(define-fun e31 () Bool (or e27 e30))
(define-fun e32 () Bool (and e13 e31))
(define-fun e33 () Bool (or e12 e32))
(define-fun e34 () Bool (and e7 e33))
(define-fun e35 () Bool (or c6 e34))
(define-fun e36 () Bool (or e26 e35))
(define-fun e37 () Bool (or e36 e9))
(declare-fun c38 () Bool)
(define-fun e39 () Bool (not c38))
(declare-fun c40 ((_ BitVec 64)) (_ BitVec 64))
(define-fun e41 () (_ BitVec 64) (c40 c10))
(define-fun e42 () Bool (= e18 e41))
(define-fun e43 () Bool (and e15 e42))
(define-fun e44 () (_ BitVec 64) (c40 c11))
(define-fun e45 () Bool (= e18 e44))
(define-fun e46 () Bool (and e16 e45))
(define-fun e47 () Bool (and e13 e17 e39 e43 e46))
(define-fun e48 () Bool (and e43 e46))
(define-fun e49 () Bool (not e48))
(define-fun e50 () Bool (and e17 e49))
(define-fun e51 () Bool (or e27 e50))
(define-fun e52 () Bool (and e13 e51))
(define-fun e53 () Bool (or e12 e52))
(define-fun e54 () Bool (and e39 e53))
(define-fun e55 () Bool (or c38 e54))
(define-fun e56 () Bool (or e47 e55))
(define-fun e57 () Bool (or e56 e9))
(define-fun e58 () Bool (and e37 e57))
(define-fun e59 () Bool (or e9 e58))
(define-fun e60 () Bool (not e59))
(assert e60)
(check-sat)
